(set-logic HORN)
(declare-fun state (Int (Array Int Int) (Array Int Int) (Array Int Int) (Array Int Int) Int Int (Array Int Int) (Array Int Int) Int Int Int Int Int Int Int Int Int Int Int Int Int Int Int Int Int Int Int Bool Bool Bool Bool Bool (Array Int Int)) Bool)
(assert (forall ((|A_20| Int) (|D1_10| (Array Int Int)) (|C_20| (Array Int Int)) (|D_20| (Array Int Int)) (|E_20| (Array Int Int)) (|F_20| Int) (|G_20| Int) (|H_20| (Array Int Int)) (|I_20| (Array Int Int)) (|J_20| Int) (|K_20| Int) (|L_20| Int) (|E1_5| Int) (|F1_3| Int) (|O_20| Int) (|P_20| Int) (|Q_20| Int) (|R_20| Int) (|S_20| Int) (|T_20| Int) (|G1_0| Int) (|V_20| Int) (|H1_0| Int) (|X_20| Int) (|Y_20| Int) (|Z_20| Int) (|I1_0| Int) (|B1_20| Int) (|C1_20| Bool) (|.loc.5| Bool) (|.loc.6| Bool) (|.loc.7| Bool) (|.loc.8| Bool) (|D1_0| (Array Int Int)) (|.x.806| Int) (|.x.804| (Array Int Int)) (|.x.802| Int) (|.x.800| (Array Int Int)) (|.x.796| Int) (|.x.798| (Array Int Int)) (|.x.815| Int) (|.x.818| Int) (|.x.824| Bool) (|.x.797| (Array Int Int)) (|.x.811| Int) (|.x.819| Int) (|.x.821| Int) (|.x.823| Int) (|.x.808| Int) (|.x.809| Int) (|.x.816| Int) (|.x.822| Int) (|.x.817| Int) (|.loc.10| Bool) (|.loc.11| Bool) (|.loc.12| Bool) (|.loc.9| Bool) (|.x.814| Int) (|.x.820| Int) (|.x.799| (Array Int Int)) (|.x.803| (Array Int Int)) (|.x.801| Int) (|.x.805| Int) (|.x.807| Int) (|.x.810| Int) (|.x.812| Int) (|.x.813| Int) (|.xtv.1| (Array Int Int))) (=> (and (and (and .loc.7 (and .loc.5 .loc.6)) (not .loc.8)) (and (and (and (and (and (= D_20 E_20) (not C1_20)) (= J_20 K_20)) (= F_20 G_20)) (= H_20 I_20)) (= D1_10 C_20))) (state |A_20| |D1_10| |C_20| |D_20| |E_20| |F_20| |G_20| |H_20| |I_20| |J_20| |K_20| |L_20| |E1_5| |F1_3| |O_20| |P_20| |Q_20| |R_20| |S_20| |T_20| |G1_0| |V_20| |H1_0| |X_20| |Y_20| |Z_20| |I1_0| |B1_20| |C1_20| |.loc.5| |.loc.6| |.loc.7| |.loc.8| |D1_0|))))
(assert (forall ((|A_20| Int) (|D1_10| (Array Int Int)) (|C_20| (Array Int Int)) (|D_20| (Array Int Int)) (|E_20| (Array Int Int)) (|F_20| Int) (|G_20| Int) (|H_20| (Array Int Int)) (|I_20| (Array Int Int)) (|J_20| Int) (|K_20| Int) (|L_20| Int) (|E1_5| Int) (|F1_3| Int) (|O_20| Int) (|P_20| Int) (|Q_20| Int) (|R_20| Int) (|S_20| Int) (|T_20| Int) (|G1_0| Int) (|V_20| Int) (|H1_0| Int) (|X_20| Int) (|Y_20| Int) (|Z_20| Int) (|I1_0| Int) (|B1_20| Int) (|C1_20| Bool) (|.loc.5| Bool) (|.loc.6| Bool) (|.loc.7| Bool) (|.loc.8| Bool) (|D1_0| (Array Int Int)) (|.x.806| Int) (|.x.804| (Array Int Int)) (|.x.802| Int) (|.x.800| (Array Int Int)) (|.x.796| Int) (|.x.798| (Array Int Int)) (|.x.815| Int) (|.x.818| Int) (|.x.824| Bool) (|.x.797| (Array Int Int)) (|.x.811| Int) (|.x.819| Int) (|.x.821| Int) (|.x.823| Int) (|.x.808| Int) (|.x.809| Int) (|.x.816| Int) (|.x.822| Int) (|.x.817| Int) (|.loc.10| Bool) (|.loc.11| Bool) (|.loc.12| Bool) (|.loc.9| Bool) (|.x.814| Int) (|.x.820| Int) (|.x.799| (Array Int Int)) (|.x.803| (Array Int Int)) (|.x.801| Int) (|.x.805| Int) (|.x.807| Int) (|.x.810| Int) (|.x.812| Int) (|.x.813| Int) (|.xtv.1| (Array Int Int))) (=> (and (state |A_20| |D1_10| |C_20| |D_20| |E_20| |F_20| |G_20| |H_20| |I_20| |J_20| |K_20| |L_20| |E1_5| |F1_3| |O_20| |P_20| |Q_20| |R_20| |S_20| |T_20| |G1_0| |V_20| |H1_0| |X_20| |Y_20| |Z_20| |I1_0| |B1_20| |C1_20| |.loc.5| |.loc.6| |.loc.7| |.loc.8| |D1_0|) (let ((.def_46 (not .loc.8))) (let ((.def_91 (= P_20 .x.811))) (let ((.def_94 (= X_20 .x.819))) (let ((.def_97 (= Z_20 .x.821))) (let ((.def_100 (= B1_20 .x.823))) (let ((.def_102 (= C1_20 .x.824))) (let ((.def_107 (= .x.811 0))) (let ((.def_110 (not .loc.7))) (let ((.def_119 (select D_20 F1_3))) (let ((.def_123 (<= R_20 V_20))) (let ((.def_124 (not .def_123))) (let ((.def_142 (select D_20 G1_0))) (let ((.def_147 (select .def_142 (+ (+ E1_5 (+ (* (- 4) V_20) (+ (* (- 4) (* R_20 S_20)) (* 4 (* Q_20 R_20))))) (- 4))))) (let ((.def_150 (or C1_20 (and (and (and (and (= .x.819 (select .def_119 (+ (* 4 V_20) (+ I1_0 (* 4 (* R_20 S_20)))))) .def_124) (= .x.821 (ite (= .x.819 .x.823) 1 0))) (= .x.811 .x.821)) (= .x.823 .def_147))))) (let ((.def_152 (= D1_10 .x.797))) (let ((.def_155 (= E1_5 .x.808))) (let ((.def_158 (= F1_3 .x.809))) (let ((.def_160 (= T_20 .x.815))) (let ((.def_163 (= G1_0 .x.816))) (let ((.def_165 (= H1_0 .x.818))) (let ((.def_168 (= I1_0 .x.822))) (let ((.def_172 (= V_20 .x.817))) (let ((.def_181 (not .loc.9))) (let ((.def_187 (= (+ V_20 (* (- 1) .x.817)) (- 1)))) (let ((.def_201 (not .loc.12))) (let ((.def_203 (not .loc.11))) (let ((.def_205 (not .loc.10))) (let ((.def_207 (not .loc.5))) (let ((.def_211 (and C1_20 .def_91))) (let ((.def_236 (and .def_102 (and .def_100 (and .def_97 (and .def_94 (and .def_91 .def_172))))))) (let ((.def_237 (and .loc.7 .def_236))) (let ((.def_251 (<= Q_20 S_20))) (let ((.def_252 (or C1_20 .def_251))) (let ((.def_258 (and .def_102 (and .def_100 (and .def_97 (and .def_91 .def_94)))))) (let ((.def_274 (= .x.817 0))) (let ((.def_276 (or C1_20 (and (not .def_251) .def_274)))) (let ((.def_279 (not .loc.6))) (let ((.def_281 (= S_20 .x.814))) (let ((.def_302 (or C1_20 (= (+ S_20 (* (- 1) .x.814)) (- 1))))) (let ((.def_347 (and .loc.5 .def_258))) (let ((.def_362 (= .x.814 0))) (let ((.def_364 (or C1_20 (and .def_274 .def_362)))) (let ((.def_372 (and .def_102 (and .def_100 (and .def_97 (and .def_94 (and .def_172 (and .def_211 .def_281)))))))) (let ((.def_373 (and .loc.5 .def_372))) (let ((.def_389 (and .def_91 .def_281))) (let ((.def_394 (and .def_102 (and .def_100 (and .def_97 (and .def_94 (and .def_172 .def_389))))))) (let ((.def_395 (and .loc.5 .def_394))) (let ((.def_410 (or C1_20 .def_123))) (let ((.def_510 (= Y_20 .x.820))) (let ((.def_512 (= D_20 .x.799))) (let ((.def_542 (and C1_20 .def_512))) (let ((.def_567 (and .def_91 .def_512))) (let ((.def_568 (and .def_281 .def_567))) (let ((.def_638 (= H_20 .x.803))) (let ((.def_640 (= F_20 .x.801))) (let ((.def_643 (= J_20 .x.805))) (let ((.def_644 (and (and .def_638 .def_640) .def_643))) (let ((.def_646 (= L_20 .x.807))) (let ((.def_649 (= O_20 .x.810))) (let ((.def_652 (= Q_20 .x.812))) (let ((.def_655 (= R_20 .x.813))) (let ((.def_694 (store D1_0 .x.809 1))) (let ((.def_761 (and .def_281 (and .def_655 (and .def_652 (and .def_91 (and .def_649 (and .def_646 (and .def_643 (and .def_638 (and .def_512 .def_640))))))))))) (and (and (= K_20 .x.806) (and (= I_20 .x.804) (and (= G_20 .x.802) (and (= E_20 .x.800) (and (= A_20 .x.796) (= C_20 .x.798)))))) (or (or (or (or (or (and (or (or (or (or (or (and (or (or (or (or (or (or (or (or (or (or (or (or (and (or (or (or (or (and (or (and .loc.8 (and .loc.7 (and (or (= .x.815 .x.818) .x.824) (and (and (and (and (and (or C1_20 (and (= (store (store D1_10 F1_3 0) G1_0 0) .x.797) (= .x.818 0))) .def_91) .def_94) .def_97) .def_100) .def_102)))) (and (and (and (and (and (and (and (and (and (or C1_20 .def_107) (and (and .def_46 .x.824) .def_110)) .def_150) .def_152) .def_155) .def_158) .def_160) .def_163) .def_165) .def_168)) (and (and (and (and (and .loc.5 .def_172) .loc.10) .loc.11) .loc.12) .def_181)) (and (or C1_20 .def_187) (and (and (and (and (and .def_168 (and .def_165 (and .def_163 (and .def_160 (and .def_158 (and .def_155 (and .def_152 (and .def_110 (and .def_46 (and .loc.9 (and .def_102 (and .def_91 .def_97)))))))))))) .def_201) .def_203) .def_205) .def_207))) (and .def_207 (and .def_205 (and .def_168 (and .def_165 (and .def_163 (and .def_160 (and .def_158 (and .def_155 (and .def_152 (and .loc.12 (and .loc.11 (and .loc.9 (and .loc.8 (and .loc.7 (and .def_102 (and .def_100 (and .def_97 (and .def_94 (and .def_172 .def_211)))))))))))))))))))) (and (and .def_207 (and .def_205 (and .def_168 (and .def_165 (and .def_163 (and .def_160 (and .def_158 (and .def_155 (and .def_152 (and .loc.12 (and .loc.11 (and .loc.9 (and .loc.8 .def_237))))))))))))) .def_252)) (and (and .def_207 (and .def_205 (and .def_203 (and .def_201 (and .def_168 (and .def_165 (and .def_163 (and .def_160 (and .def_158 (and .def_155 (and .def_152 (and .loc.9 (and .loc.8 (and .loc.7 .def_258)))))))))))))) .def_276)) (and .def_279 .def_281)) (and (and .def_207 (and .def_205 (and .def_168 (and .def_165 (and .def_163 (and .def_160 (and .def_158 (and .def_155 (and .def_152 (and .def_110 (and .def_46 (and .def_181 (and .loc.12 (and .loc.11 (and .loc.6 .def_236))))))))))))))) .def_302)) (and (or .x.824 (not .def_107)) (and .def_205 (and .def_203 (and .def_201 (and .def_168 (and .def_165 (and .def_163 (and .def_160 (and .def_158 (and .def_155 (and .def_152 (and .def_150 (and .def_110 (and .def_46 (and .def_181 (and .def_279 (and .loc.5 (and .def_102 (and .def_172 .def_281)))))))))))))))))))) (and .def_205 (and .def_203 (and .def_201 (and .def_168 (and .def_165 (and .def_163 (and .def_160 (and .def_158 (and .def_155 (and .def_152 (and .def_150 (and .def_110 (and .def_46 (and .def_181 (and .def_279 (and .loc.5 (and .def_172 (and .def_281 (and C1_20 .x.824)))))))))))))))))))) (and (and .def_205 (and .def_168 (and .def_165 (and .def_163 (and .def_160 (and .def_158 (and .def_155 (and .def_152 (and .def_110 (and .def_181 (and .loc.12 (and .loc.11 (and .loc.8 (and .loc.6 .def_347)))))))))))))) .def_364)) (and .def_203 (and .def_201 (and .def_168 (and .def_165 (and .def_163 (and .def_160 (and .def_158 (and .def_155 (and .def_152 (and .def_110 (and .def_46 (and .def_181 (and .loc.10 (and .def_279 .def_373))))))))))))))) (and (and .def_203 (and .def_201 (and .def_168 (and .def_165 (and .def_163 (and .def_160 (and .def_158 (and .def_155 (and .def_152 (and .def_110 (and .def_46 (and .def_181 (and .loc.10 (and .def_279 .def_395)))))))))))))) .def_410)) (and .def_207 (and .def_203 (and .def_168 (and .def_165 (and .def_163 (and .def_160 (and .def_158 (and .def_155 (and .def_152 (and .def_110 (and .loc.12 (and .loc.10 (and .loc.9 (and .loc.8 (and .loc.6 .def_372)))))))))))))))) (and .def_252 (and .def_207 (and .def_203 (and .def_168 (and .def_165 (and .def_163 (and .def_160 (and .def_158 (and .def_155 (and .def_152 (and .def_110 (and .loc.12 (and .loc.10 (and .loc.9 (and .loc.8 (and .loc.6 .def_394))))))))))))))))) (and .def_302 (and .def_207 (and .def_203 (and .def_168 (and .def_165 (and .def_163 (and .def_160 (and .def_158 (and .def_155 (and .def_152 (and .def_46 (and .def_181 (and .loc.12 (and .loc.10 (and .def_237 .def_279)))))))))))))))) (and .def_364 (and .def_203 (and .def_168 (and .def_165 (and .def_163 (and .def_160 (and .def_158 (and .def_155 (and .def_152 (and .def_110 (and .def_181 (and .loc.12 (and .loc.10 (and .def_279 (and .loc.8 .def_347)))))))))))))))) (and .def_205 (and .def_201 (and .def_168 (and .def_165 (and .def_163 (and .def_160 (and .def_158 (and .def_155 (and .def_152 (and .def_110 (and .def_46 (and .def_181 (and .loc.11 (and .loc.6 .def_373))))))))))))))) (and .def_410 (and .def_205 (and .def_201 (and .def_168 (and .def_165 (and .def_163 (and .def_160 (and .def_158 (and .def_155 (and .def_152 (and .def_110 (and .def_46 (and .def_181 (and .loc.11 (and .loc.6 .def_395)))))))))))))))) (and .def_510 .def_512)) (and (or C1_20 (and (= .x.799 (store D_20 F1_3 (store .def_119 (+ (* 4 V_20) (+ I1_0 (* 4 (* R_20 S_20)))) .def_147))) (and .def_124 .def_187))) (and .def_203 (and .def_201 (and .def_168 (and .def_165 (and .def_163 (and .def_160 (and .def_158 (and .def_155 (and .def_152 (and .def_110 (and .def_46 (and .loc.10 (and .loc.9 (and .loc.6 (and .loc.5 (and .def_102 (and .def_100 (and .def_97 (and .def_94 .def_389))))))))))))))))))))) (and .def_207 (and .def_205 (and .def_203 (and .def_168 (and .def_165 (and .def_163 (and .def_160 (and .def_158 (and .def_155 (and .def_152 (and .def_110 (and .loc.12 (and .loc.9 (and .def_279 (and .loc.8 (and .def_102 (and .def_100 (and .def_97 (and .def_510 (and .def_94 (and .def_172 (and .def_281 (and .def_91 .def_542)))))))))))))))))))))))) (and .def_252 (and .def_207 (and .def_205 (and .def_203 (and .def_168 (and .def_165 (and .def_163 (and .def_160 (and .def_158 (and .def_155 (and .def_152 (and .def_110 (and .loc.12 (and .loc.9 (and .def_279 (and .loc.8 (and .def_102 (and .def_100 (and .def_97 (and .def_510 (and .def_94 (and .def_172 .def_568))))))))))))))))))))))) (and .def_276 (and .def_207 (and .def_203 (and .def_201 (and .def_168 (and .def_165 (and .def_163 (and .def_160 (and .def_158 (and .def_155 (and .def_152 (and .def_110 (and .loc.10 (and .loc.9 (and .loc.8 (and .loc.6 (and .def_102 (and .def_100 (and .def_97 (and .def_510 (and .def_94 .def_568)))))))))))))))))))))) (and .def_302 (and .def_207 (and .def_205 (and .def_203 (and .def_168 (and .def_165 (and .def_163 (and .def_160 (and .def_158 (and .def_155 (and .def_152 (and .def_46 (and .def_181 (and .loc.12 (and .loc.7 (and .loc.6 (and .def_102 (and .def_100 (and .def_97 (and .def_510 (and .def_94 (and .def_172 .def_567))))))))))))))))))))))) (and (and (and (and .def_644 .def_646) .def_649) .def_652) .def_655)) (and (or C1_20 (and (and (= .x.805 0) (= .x.801 0)) (= D1_0 (store D1_10 0 0)))) (and (or .x.824 (and (and (and (and (and (and (and (and (and .def_362 (and (and .def_274 (and (and (and (not (<= .x.796 .x.816)) (not (<= .x.796 .x.809))) (= .x.808 0)) (= .x.810 1800))) (= .x.812 1000))) (= .x.813 1500)) (not (= .x.809 0))) (= .x.822 0)) (not (= .x.816 0))) (= (select D1_0 .x.809) 0)) (= (select .def_694 .x.816) 0)) (= .x.803 (store (store H_20 .x.809 (* 4 (* .x.812 .x.813))) .x.816 (* 4 (* .x.812 .x.813))))) (= .x.797 (store .def_694 .x.816 1)))) (and .def_205 (and .def_203 (and .def_160 (and .def_46 (and .def_181 (and .loc.12 (and .loc.7 (and .loc.6 (and .loc.5 (and .def_102 (and .def_97 .def_567)))))))))))))) (and .def_201 (and .def_168 (and .def_165 (and .def_163 (and .def_160 (and .def_158 (and .def_155 (and .def_152 (and .def_46 (and .def_181 (and .loc.11 (and .loc.10 (and .def_279 (and .loc.7 (and .loc.5 (and .def_102 (and .def_100 (and .def_97 (and .def_510 (and .def_94 (and .def_172 (and .def_281 (and .def_655 (and .def_652 (and .def_91 (and .def_649 (and .def_646 (and .def_643 (and .def_638 (and .def_542 .def_640))))))))))))))))))))))))))))))) (and .def_410 (and .def_201 (and .def_168 (and .def_165 (and .def_163 (and .def_160 (and .def_158 (and .def_155 (and .def_152 (and .def_46 (and .def_181 (and .loc.11 (and .loc.10 (and .def_279 (and .loc.7 (and .loc.5 (and .def_102 (and .def_100 (and .def_97 (and .def_510 (and .def_94 (and .def_172 .def_761))))))))))))))))))))))) (and (or C1_20 (and (= .x.799 (store D_20 G1_0 (store .def_142 (+ E1_5 (+ (* 4 V_20) (* 4 (* R_20 S_20)))) L_20))) (and .def_187 (and (<= (- 2147483648) L_20) (and .def_124 (<= L_20 2147483647)))))) (and .def_205 (and .def_201 (and .def_168 (and .def_165 (and .def_163 (and .def_160 (and .def_158 (and .def_155 (and .def_152 (and .def_46 (and .loc.11 (and .loc.9 (and .def_279 (and .loc.7 (and .loc.5 (and .def_102 (and .def_100 (and .def_97 (and .def_510 (and .def_94 (and .def_281 (and .def_655 (and .def_652 (and .def_91 (and .def_644 .def_649))))))))))))))))))))))))))) (and .def_276 (and .def_207 (and .def_205 (and .def_201 (and .def_168 (and .def_165 (and .def_163 (and .def_160 (and .def_158 (and .def_155 (and .def_152 (and .def_110 (and .loc.11 (and .loc.9 (and .def_279 (and .loc.8 (and .def_102 (and .def_100 (and .def_97 (and .def_510 (and .def_94 .def_761))))))))))))))))))))))))))))))))))))))))))))))))))))))))))))))))))))))))))))))))))))))) (state |.x.796| |.x.797| |.x.798| |.x.799| |.x.800| |.x.801| |.x.802| |.x.803| |.x.804| |.x.805| |.x.806| |.x.807| |.x.808| |.x.809| |.x.810| |.x.811| |.x.812| |.x.813| |.x.814| |.x.815| |.x.816| |.x.817| |.x.818| |.x.819| |.x.820| |.x.821| |.x.822| |.x.823| |.x.824| |.loc.9| |.loc.10| |.loc.11| |.loc.12| |.xtv.1|))))
(assert (forall ((|A_20| Int) (|D1_10| (Array Int Int)) (|C_20| (Array Int Int)) (|D_20| (Array Int Int)) (|E_20| (Array Int Int)) (|F_20| Int) (|G_20| Int) (|H_20| (Array Int Int)) (|I_20| (Array Int Int)) (|J_20| Int) (|K_20| Int) (|L_20| Int) (|E1_5| Int) (|F1_3| Int) (|O_20| Int) (|P_20| Int) (|Q_20| Int) (|R_20| Int) (|S_20| Int) (|T_20| Int) (|G1_0| Int) (|V_20| Int) (|H1_0| Int) (|X_20| Int) (|Y_20| Int) (|Z_20| Int) (|I1_0| Int) (|B1_20| Int) (|C1_20| Bool) (|.loc.5| Bool) (|.loc.6| Bool) (|.loc.7| Bool) (|.loc.8| Bool) (|D1_0| (Array Int Int)) (|.x.806| Int) (|.x.804| (Array Int Int)) (|.x.802| Int) (|.x.800| (Array Int Int)) (|.x.796| Int) (|.x.798| (Array Int Int)) (|.x.815| Int) (|.x.818| Int) (|.x.824| Bool) (|.x.797| (Array Int Int)) (|.x.811| Int) (|.x.819| Int) (|.x.821| Int) (|.x.823| Int) (|.x.808| Int) (|.x.809| Int) (|.x.816| Int) (|.x.822| Int) (|.x.817| Int) (|.loc.10| Bool) (|.loc.11| Bool) (|.loc.12| Bool) (|.loc.9| Bool) (|.x.814| Int) (|.x.820| Int) (|.x.799| (Array Int Int)) (|.x.803| (Array Int Int)) (|.x.801| Int) (|.x.805| Int) (|.x.807| Int) (|.x.810| Int) (|.x.812| Int) (|.x.813| Int) (|.xtv.1| (Array Int Int))) (=> (state |A_20| |D1_10| |C_20| |D_20| |E_20| |F_20| |G_20| |H_20| |I_20| |J_20| |K_20| |L_20| |E1_5| |F1_3| |O_20| |P_20| |Q_20| |R_20| |S_20| |T_20| |G1_0| |V_20| |H1_0| |X_20| |Y_20| |Z_20| |I1_0| |B1_20| |C1_20| |.loc.5| |.loc.6| |.loc.7| |.loc.8| |D1_0|) (not (and C1_20 (and .loc.8 (and .loc.7 (and .loc.6 (not .loc.5)))))))))
(check-sat)
